SYSTEM=PSO
LWAVE=.FALSE.
LCHARG=.FALSE.
ISTART=0
ALGO=Fast
ENCUT=500
LORBIT=11
ISMEAR=0
PREC=Normal
NELMIN=3
POTIM=0.2
ISIF=2
EDIFF=0.1E-3
EDIFFG=-1.0E-2
LREAL = .False.
NCORE= 4
SIGMA=0.1
NELM=150
NSW=500
IBRION=3
ISPIN=2
