by code
1.0
    25.00000000      0.00000000      0.00000000
     0.00000000     25.00000000      0.00000000
     0.00000000      0.00000000     25.00000000
Li 
20
direct
     0.61008109      0.39193793      0.52392922
     0.47203359      0.50752096      0.62764623
     0.55433905      0.59470223      0.62261017
     0.51022929      0.45847360      0.52503141
     0.44101554      0.55632855      0.52230733
     0.50770888      0.51279710      0.43205352
     0.60010581      0.58804506      0.41743981
     0.44842946      0.61277317      0.61366603
     0.51635709      0.56006276      0.33598152
     0.54298202      0.57393862      0.52152267
     0.64353113      0.60200526      0.53800311
     0.42616621      0.46071954      0.36634042
     0.60644757      0.49539570      0.58514676
     0.48566809      0.62647195      0.43213753
     0.32986512      0.51675695      0.50050401
     0.41588864      0.41154689      0.58239966
     0.36730709      0.42065548      0.46671250
     0.50098191      0.34011418      0.52521466
     0.61391313      0.50235800      0.47982027
     0.53979315      0.41406965      0.43245034
